Solver command line: ['C:\\Program Files\\gurobi1102\\win64\\bin\\gurobi.bat']

Set parameter Username
Academic license - for non-commercial use only - expires 2025-07-11
Read LP format model from file C:\Users\PAULWI~1\AppData\Local\Temp\tmp9rlasbp4.pyomo.lp
Reading time = 0.14 seconds
objective: 18145 rows, 16799 columns, 40640 nonzeros
Set parameter TimeLimit to value 5000
Set parameter MIPGap to value 0.08
Gurobi Optimizer version 11.0.2 build v11.0.2rc0 (win64 - Windows 10.0 (19045.2))

CPU model: Intel(R) Xeon(R) CPU E5-1607 v2 @ 3.00GHz, instruction set [SSE2|AVX]
Thread count: 4 physical cores, 4 logical processors, using up to 4 threads

Optimize a model with 18145 rows, 16799 columns and 40640 nonzeros
Model fingerprint: 0xf4002d25
Model has 167 quadratic constraints
Variable types: 14448 continuous, 2351 integer (2016 binary)
Coefficient statistics:
  Matrix range     [6e-03, 1e+03]
  QMatrix range    [1e+00, 1e+00]
  Objective range  [4e+01, 3e+02]
  Bounds range     [1e+00, 3e+00]
  RHS range        [2e-03, 1e+04]
Presolve removed 16306 rows and 14455 columns
Presolve time: 0.13s
Presolved: 1839 rows, 2344 columns, 6355 nonzeros
Variable types: 1843 continuous, 501 integer (501 binary)
Found heuristic solution: objective 1189745.0003

Root relaxation: objective 5.334187e+05, 1080 iterations, 0.02 seconds (0.01 work units)

    Nodes    |    Current Node    |     Objective Bounds      |     Work
 Expl Unexpl |  Obj  Depth IntInf | Incumbent    BestBd   Gap | It/Node Time

     0     0 533418.686    0   14 1189745.00 533418.686  55.2%     -    0s
H    0     0                    535422.69707 534206.810  0.23%     -    0s
     0     0 534206.810    0   18 535422.697 534206.810  0.23%     -    0s

Cutting planes:
  Gomory: 14
  Cover: 2
  Implied bound: 11
  MIR: 9
  Flow cover: 9
  RLT: 9
  Relax-and-lift: 8

Explored 1 nodes (1211 simplex iterations) in 0.26 seconds (0.10 work units)
Thread count was 4 (of 4 available processors)

Solution count 2: 535423 1.18975e+06 

Optimal solution found (tolerance 8.00e-02)
Best objective 5.354226970704e+05, best bound 5.342068102544e+05, gap 0.2271%

